10209
1 0 1 0 0 1 1 1 1 1 1 0 1 1 0 1 0 1 1 0 
8 17 8 8 8 17 17 2 8 8 8 2 2 8 2 2 2 2 2 8 12 12 8 12 6 8 12 12 12 12 6 6 6 6 6 6 6 6 6 0 0 0 0 0 0 0 0 0 0 0 0 0 7 7 10 7 7 7 10 7 13 13 13 13 9 9 9 10 9 13 13 9 9 13 17 9 9 13 9 9 13 15 13 15 15 9 5 15 5 9 5 18 18 17 17 17 18 17 17 17 